presolving:
(round 1, fast)       160 del vars, 0 del conss, 0 add conss, 0 chg bounds, 0 chg sides, 0 chg coeffs, 0 upgd conss, 0 impls, 318 clqs
(round 2, exhaustive) 160 del vars, 0 del conss, 0 add conss, 0 chg bounds, 0 chg sides, 0 chg coeffs, 318 upgd conss, 0 impls, 318 clqs
   (2.0s) probing: 51/25122 (0.2%) - 0 fixings, 0 aggregations, 0 implications, 0 bound changes
   (2.0s) probing aborted: 50/50 successive totally useless probings
   Deactivated symmetry handling methods, since SCIP was built without symmetry detector (SYM=none).
presolving (3 rounds: 3 fast, 2 medium, 2 exhaustive):
 160 deleted vars, 0 deleted constraints, 0 added constraints, 0 tightened bounds, 0 added holes, 0 changed sides, 0 changed coefficients
 0 implications, 318 cliques
presolved problem has 25280 variables (25122 bin, 0 int, 0 impl, 158 cont) and 25124 constraints
    318 constraints of type <setppc>
  24806 constraints of type <linear>
Presolving Time: 2.00

 time | node  | left  |LP iter|LP it/n|mem/heur|mdpt |vars |cons |rows |cuts |sepa|confs|strbr|  dualbound   | primalbound  |  gap   | compl. 
p 3.0s|     1 |     0 |   158 |     - | vbounds|   0 |  25k|  25k|  25k|   0 |  0 |   5 |   0 | 0.000000e+00 | 4.326485e+04 |    Inf | unknown
  3.0s|     1 |     0 |   624 |     - |   240M |   0 |  25k|  25k|  25k|   0 |  0 |   5 |   0 | 3.469853e+04 | 4.326485e+04 |  24.69%| unknown
  4.0s|     1 |     0 |   786 |     - |   246M |   0 |  25k|  25k|  25k| 122 |  1 |   5 |   0 | 3.674546e+04 | 4.326485e+04 |  17.74%| unknown
  5.0s|     1 |     0 |   877 |     - |   249M |   0 |  25k|  25k|  25k| 180 |  2 |   5 |   0 | 3.773267e+04 | 4.326485e+04 |  14.66%| unknown
  5.0s|     1 |     0 |   877 |     - |   249M |   0 |  25k|  25k|  25k| 180 |  2 |   5 |   0 | 3.773267e+04 | 4.326485e+04 |  14.66%| unknown
  6.0s|     1 |     0 |   944 |     - |   253M |   0 |  25k|  25k|  25k| 195 |  3 |   5 |   0 | 3.925348e+04 | 4.326485e+04 |  10.22%| unknown
  6.0s|     1 |     0 |   944 |     - |   253M |   0 |  25k|  25k|  25k| 195 |  3 |   5 |   0 | 3.925348e+04 | 4.326485e+04 |  10.22%| unknown
  6.0s|     1 |     0 |   972 |     - |   256M |   0 |  25k|  25k|  25k| 206 |  4 |   5 |   0 | 3.963724e+04 | 4.326485e+04 |   9.15%| unknown
  7.0s|     1 |     0 |   972 |     - |   256M |   0 |  25k|  25k|  25k| 206 |  4 |   5 |   0 | 3.963724e+04 | 4.326485e+04 |   9.15%| unknown
  7.0s|     1 |     0 |  1041 |     - |   260M |   0 |  25k|  25k|  25k| 241 |  5 |   5 |   0 | 3.966019e+04 | 4.326485e+04 |   9.09%| unknown
  7.0s|     1 |     0 |  1041 |     - |   260M |   0 |  25k|  25k|  25k| 241 |  5 |   5 |   0 | 3.966019e+04 | 4.326485e+04 |   9.09%| unknown
  8.0s|     1 |     0 |  1071 |     - |   265M |   0 |  25k|  25k|  25k| 259 |  6 |   5 |   0 | 3.966019e+04 | 4.326485e+04 |   9.09%| unknown
  8.0s|     1 |     0 |  1088 |     - |   267M |   0 |  25k|  25k|  25k| 267 |  7 |   5 |   0 | 3.977621e+04 | 4.326485e+04 |   8.77%| unknown
  8.0s|     1 |     0 |  1088 |     - |   267M |   0 |  25k|  25k|  25k| 267 |  7 |   5 |   0 | 3.977621e+04 | 4.326485e+04 |   8.77%| unknown
  9.0s|     1 |     0 |  1143 |     - |   271M |   0 |  25k|  25k|  25k| 292 |  8 |   5 |   0 | 3.992802e+04 | 4.326485e+04 |   8.36%| unknown
 time | node  | left  |LP iter|LP it/n|mem/heur|mdpt |vars |cons |rows |cuts |sepa|confs|strbr|  dualbound   | primalbound  |  gap   | compl. 
  9.0s|     1 |     0 |  1143 |     - |   271M |   0 |  25k|  25k|  25k| 292 |  8 |   5 |   0 | 3.992802e+04 | 4.326485e+04 |   8.36%| unknown
  9.0s|     1 |     0 |  1189 |     - |   275M |   0 |  25k|  25k|  25k| 316 |  9 |   5 |   0 | 3.997821e+04 | 4.326485e+04 |   8.22%| unknown
 10.0s|     1 |     0 |  1189 |     - |   275M |   0 |  25k|  25k|  25k| 316 |  9 |   5 |   0 | 3.997821e+04 | 4.326485e+04 |   8.22%| unknown
 10.0s|     1 |     0 |  1209 |     - |   280M |   0 |  25k|  25k|  25k| 333 | 10 |   5 |   0 | 4.002965e+04 | 4.326485e+04 |   8.08%| unknown
 10.0s|     1 |     0 |  1209 |     - |   280M |   0 |  25k|  25k|  25k| 333 | 10 |   5 |   0 | 4.002965e+04 | 4.326485e+04 |   8.08%| unknown
 11.0s|     1 |     0 |  1223 |     - |   282M |   0 |  25k|  25k|  25k| 342 | 11 |   5 |   0 | 4.002965e+04 | 4.326485e+04 |   8.08%| unknown
 11.0s|     1 |     0 |  1250 |     - |   284M |   0 |  25k|  25k|  25k| 357 | 12 |   5 |   0 | 4.004970e+04 | 4.326485e+04 |   8.03%| unknown
 11.0s|     1 |     0 |  1250 |     - |   284M |   0 |  25k|  25k|  25k| 357 | 12 |   5 |   0 | 4.004970e+04 | 4.326485e+04 |   8.03%| unknown
 12.0s|     1 |     0 |  1269 |     - |   288M |   0 |  25k|  25k|  25k| 365 | 13 |   5 |   0 | 4.009113e+04 | 4.326485e+04 |   7.92%| unknown
 12.0s|     1 |     0 |  1269 |     - |   288M |   0 |  25k|  25k|  25k| 365 | 13 |   5 |   0 | 4.009113e+04 | 4.326485e+04 |   7.92%| unknown
 13.0s|     1 |     0 |  1330 |     - |   291M |   0 |  25k|  25k|  25k| 384 | 14 |   5 |   0 | 4.026192e+04 | 4.326485e+04 |   7.46%| unknown
 13.0s|     1 |     0 |  1330 |     - |   291M |   0 |  25k|  25k|  25k| 384 | 14 |   5 |   0 | 4.026192e+04 | 4.326485e+04 |   7.46%| unknown
 14.0s|     1 |     0 |  1441 |     - |   297M |   0 |  25k|  25k|  25k| 425 | 15 |   5 |   0 | 4.041564e+04 | 4.326485e+04 |   7.05%| unknown
 15.0s|     1 |     0 |  1441 |     - |   297M |   0 |  25k|  25k|  25k| 425 | 15 |   5 |   0 | 4.041564e+04 | 4.326485e+04 |   7.05%| unknown
 15.0s|     1 |     0 |  1487 |     - |   300M |   0 |  25k|  25k|  25k| 449 | 16 |   5 |   0 | 4.044239e+04 | 4.326485e+04 |   6.98%| unknown
 time | node  | left  |LP iter|LP it/n|mem/heur|mdpt |vars |cons |rows |cuts |sepa|confs|strbr|  dualbound   | primalbound  |  gap   | compl. 
 15.0s|     1 |     0 |  1487 |     - |   300M |   0 |  25k|  25k|  25k| 449 | 16 |   5 |   0 | 4.044239e+04 | 4.326485e+04 |   6.98%| unknown
 16.0s|     1 |     0 |  1503 |     - |   303M |   0 |  25k|  25k|  25k| 463 | 17 |   5 |   0 | 4.044239e+04 | 4.326485e+04 |   6.98%| unknown
 16.0s|     1 |     0 |  1520 |     - |   307M |   0 |  25k|  25k|  25k| 469 | 18 |   5 |   0 | 4.044670e+04 | 4.326485e+04 |   6.97%| unknown
 17.0s|     1 |     0 |  1520 |     - |   307M |   0 |  25k|  25k|  25k| 469 | 18 |   5 |   0 | 4.044670e+04 | 4.326485e+04 |   6.97%| unknown
 17.0s|     1 |     0 |  1524 |     - |   309M |   0 |  25k|  25k|  25k| 471 | 19 |   5 |   0 | 4.044670e+04 | 4.326485e+04 |   6.97%| unknown
 17.0s|     1 |     0 |  1535 |     - |   311M |   0 |  25k|  25k|  25k| 479 | 20 |   5 |   0 | 4.044670e+04 | 4.326485e+04 |   6.97%| unknown
 18.0s|     1 |     0 |  1539 |     - |   311M |   0 |  25k|  25k|  25k| 483 | 21 |   5 |   0 | 4.044670e+04 | 4.326485e+04 |   6.97%| unknown
 19.0s|     1 |     0 |  1540 |     - |   311M |   0 |  25k|  25k|  25k| 484 | 23 |   5 |   0 | 4.044670e+04 | 4.326485e+04 |   6.97%| unknown
(run 1, node 1) restarting after 10157 global fixings of integer variables

(restart) converted 304 cuts from the global cut pool into linear constraints

presolving:
(round 1, fast)       10157 del vars, 2 del conss, 0 add conss, 0 chg bounds, 0 chg sides, 82 chg coeffs, 0 upgd conss, 0 impls, 369 clqs
(round 2, exhaustive) 10157 del vars, 4952 del conss, 0 add conss, 0 chg bounds, 0 chg sides, 82 chg coeffs, 0 upgd conss, 0 impls, 369 clqs
(round 3, exhaustive) 10157 del vars, 4952 del conss, 0 add conss, 0 chg bounds, 0 chg sides, 82 chg coeffs, 207 upgd conss, 0 impls, 369 clqs
presolving (4 rounds: 4 fast, 3 medium, 3 exhaustive):
 10157 deleted vars, 4953 deleted constraints, 0 added constraints, 0 tightened bounds, 0 added holes, 0 changed sides, 92 changed coefficients
 106 implications, 369 cliques
presolved problem has 15123 variables (14965 bin, 0 int, 0 impl, 158 cont) and 20495 constraints
    106 constraints of type <varbound>
     46 constraints of type <knapsack>
    367 constraints of type <setppc>
  19953 constraints of type <linear>
     23 constraints of type <logicor>
Presolving Time: 2.00
transformed 1/1 original solutions to the transformed problem space

 time | node  | left  |LP iter|LP it/n|mem/heur|mdpt |vars |cons |rows |cuts |sepa|confs|strbr|  dualbound   | primalbound  |  gap   | compl. 
 50.0s|     1 |     0 |  9167 |     - |   323M |   0 |  15k|  20k|  20k|   0 |  0 |  19 |   0 | 4.044670e+04 | 4.326485e+04 |   6.97%| unknown
 50.0s|     1 |     0 |  9167 |     - |   323M |   0 |  15k|  20k|  20k|   0 |  0 |  19 |   0 | 4.044670e+04 | 4.326485e+04 |   6.97%| unknown
 50.0s|     1 |     0 |  9345 |     - |   327M |   0 |  15k|  20k|  20k|  12 |  1 |  19 |   0 | 4.044916e+04 | 4.326485e+04 |   6.96%| unknown
 50.0s|     1 |     0 |  9345 |     - |   327M |   0 |  15k|  20k|  20k|  12 |  1 |  19 |   0 | 4.044916e+04 | 4.326485e+04 |   6.96%| unknown
 51.0s|     1 |     0 |  9535 |     - |   329M |   0 |  15k|  20k|  20k|  50 |  2 |  19 |   0 | 4.045504e+04 | 4.326485e+04 |   6.95%| unknown
 51.0s|     1 |     0 |  9535 |     - |   329M |   0 |  15k|  20k|  20k|  50 |  2 |  19 |   0 | 4.045504e+04 | 4.326485e+04 |   6.95%| unknown
 51.0s|     1 |     0 |  9619 |     - |   331M |   0 |  15k|  20k|  20k| 111 |  3 |  19 |   0 | 4.045504e+04 | 4.326485e+04 |   6.95%| unknown
 52.0s|     1 |     0 |  9667 |     - |   334M |   0 |  15k|  20k|  20k| 148 |  4 |  19 |   0 | 4.045504e+04 | 4.326485e+04 |   6.95%| unknown
 52.0s|     1 |     0 |  9739 |     - |   337M |   0 |  15k|  20k|  20k| 185 |  5 |  19 |   0 | 4.045504e+04 | 4.326485e+04 |   6.95%| unknown
 53.0s|     1 |     0 |  9767 |     - |   339M |   0 |  15k|  20k|  20k| 206 |  6 |  19 |   0 | 4.045504e+04 | 4.326485e+04 |   6.95%| unknown
 54.0s|     1 |     0 |  9844 |     - |   342M |   0 |  15k|  20k|  20k| 255 |  7 |  19 |   0 | 4.045516e+04 | 4.326485e+04 |   6.95%| unknown
 54.0s|     1 |     0 |  9885 |     - |   345M |   0 |  15k|  20k|  20k| 286 |  8 |  19 |   0 | 4.045516e+04 | 4.326485e+04 |   6.95%| unknown
 55.0s|     1 |     0 |  9914 |     - |   347M |   0 |  15k|  20k|  20k| 304 |  9 |  19 |   0 | 4.045516e+04 | 4.326485e+04 |   6.95%| unknown
 56.0s|     1 |     0 |  9957 |     - |   351M |   0 |  15k|  20k|  20k| 339 | 10 |  19 |   0 | 4.045621e+04 | 4.326485e+04 |   6.94%| unknown
 57.0s|     1 |     0 |  9957 |     - |   351M |   0 |  15k|  20k|  20k| 339 | 10 |  29 |   0 | 4.045621e+04 | 4.326485e+04 |   6.94%| unknown
 time | node  | left  |LP iter|LP it/n|mem/heur|mdpt |vars |cons |rows |cuts |sepa|confs|strbr|  dualbound   | primalbound  |  gap   | compl. 
 57.0s|     1 |     0 | 10001 |     - |   355M |   0 |  15k|  20k|  20k| 361 | 11 |  29 |   0 | 4.045628e+04 | 4.326485e+04 |   6.94%| unknown
 58.0s|     1 |     0 | 10001 |     - |   355M |   0 |  15k|  20k|  20k| 361 | 11 |  29 |   0 | 4.045628e+04 | 4.326485e+04 |   6.94%| unknown
 58.0s|     1 |     0 | 10026 |     - |   357M |   0 |  15k|  20k|  20k| 380 | 12 |  29 |   0 | 4.045628e+04 | 4.326485e+04 |   6.94%| unknown
 87.0s|     1 |     2 | 12378 |     - |   357M |   0 |  15k|  20k|  20k| 380 | 12 |  32 |  25 | 4.045679e+04 | 4.326485e+04 |   6.94%| unknown

SCIP Status        : solving was interrupted [time limit reached]
Solving Time (sec) : 600.00
Solving Nodes      : 36 (total of 37 nodes in 2 runs)
Primal Bound       : +4.32648531904999e+04 (1 solutions)
Dual Bound         : +4.04567936886346e+04
Gap                : 6.94 %
Trying to solve problem with MTZ Solver Method...
Starting Solver, time limit setted to 10 minutes
Route:  [[0, 2], [1, 3], [2, 1], [3, 4], [4, 5], [5, 6], [6, 7], [7, 8], [8, 9], [9, 10], [10, 11], [11, 12], [12, 13], [13, 14], [14, 15], [15, 16], [16, 17], [17, 18], [18, 19], [19, 20], [20, 21], [21, 22], [22, 23], [23, 24], [24, 25], [25, 26], [26, 27], [27, 28], [28, 29], [29, 30], [30, 31], [31, 32], [32, 33], [33, 34], [34, 35], [35, 36], [36, 37], [37, 38], [38, 39], [39, 40], [40, 41], [41, 42], [42, 43], [43, 44], [44, 45], [45, 46], [46, 47], [47, 48], [48, 49], [49, 50], [50, 51], [51, 52], [52, 53], [53, 54], [54, 55], [55, 56], [56, 57], [57, 58], [58, 59], [59, 60], [60, 61], [61, 62], [62, 63], [63, 64], [64, 65], [65, 66], [66, 67], [67, 68], [68, 69], [69, 70], [70, 71], [71, 72], [72, 73], [73, 74], [74, 75], [75, 76], [76, 77], [77, 78], [78, 79], [79, 80], [80, 81], [81, 82], [82, 83], [83, 84], [84, 85], [85, 86], [86, 87], [87, 88], [88, 89], [89, 90], [90, 91], [91, 92], [92, 93], [93, 94], [94, 95], [95, 96], [96, 97], [97, 98], [98, 99], [99, 100], [100, 101], [101, 102], [102, 103], [103, 104], [104, 105], [105, 106], [106, 107], [107, 108], [108, 109], [109, 110], [110, 111], [111, 112], [112, 113], [113, 114], [114, 115], [115, 116], [116, 117], [117, 118], [118, 119], [119, 120], [120, 121], [121, 122], [122, 123], [123, 124], [124, 125], [125, 126], [126, 127], [127, 128], [128, 129], [129, 130], [130, 131], [131, 132], [132, 133], [133, 134], [134, 135], [135, 136], [136, 137], [137, 138], [138, 139], [139, 140], [140, 141], [141, 142], [142, 143], [143, 144], [144, 145], [145, 146], [146, 147], [147, 148], [148, 149], [149, 150], [150, 151], [151, 152], [152, 153], [153, 154], [154, 155], [155, 156], [156, 157], [157, 158], [158, 0]]
An Otimal Solution was found, yay!
Objective value: 43264.9
Problem solved in 15753 iterations
Problem solved in 37 nodes
Final Route Configuration succesfully created at:
data/routes/u159.csv
